\* CVRP_MTZ *\
Minimize
TotalDistance: 50.17 x_0_1 + 84.52 x_0_10 + 59.01 x_0_11 + 18.45 x_0_12
 + 47.02 x_0_13 + 93.01 x_0_14 + 81.42 x_0_15 + 82.42 x_0_2 + 32.76 x_0_3
 + 33.2 x_0_4 + 35.45 x_0_5 + 86.88 x_0_6 + 79.11 x_0_7 + 43.17 x_0_8
 + 66.2 x_0_9 + 84.52 x_10_0 + 47.46 x_10_1 + 39.2 x_10_11 + 66.42 x_10_12
 + 55.71 x_10_13 + 9.51 x_10_14 + 3.13 x_10_15 + 45.61 x_10_2 + 91.36 x_10_3
 + 56.87 x_10_4 + 101.94 x_10_5 + 23.23 x_10_6 + 43.23 x_10_7 + 49.3 x_10_8
 + 23.54 x_10_9 + 59.01 x_11_0 + 49.74 x_11_1 + 39.2 x_11_10 + 44.98 x_11_12
 + 17.44 x_11_13 + 43.88 x_11_14 + 37.13 x_11_15 + 25.06 x_11_2 + 55.19 x_11_3
 + 46.07 x_11_4 + 66.18 x_11_5 + 56.18 x_11_6 + 21.36 x_11_7 + 15.89 x_11_8
 + 15.87 x_11_9 + 18.45 x_12_0 + 33.31 x_12_1 + 66.42 x_12_10 + 44.98 x_12_11
 + 37.3 x_12_13 + 75.12 x_12_14 + 63.3 x_12_15 + 69.71 x_12_2 + 40.61 x_12_3
 + 16.43 x_12_4 + 47.3 x_12_5 + 68.54 x_12_6 + 66.13 x_12_7 + 30.14 x_12_8
 + 49.45 x_12_9 + 47.02 x_13_0 + 53.9 x_13_1 + 55.71 x_13_10 + 17.44 x_13_11
 + 37.3 x_13_12 + 61.08 x_13_14 + 53.34 x_13_15 + 36.09 x_13_2 + 37.94 x_13_3
 + 44.58 x_13_4 + 48.96 x_13_5 + 70.11 x_13_6 + 33.13 x_13_7 + 10.51 x_13_8
 + 32.2 x_13_9 + 93.01 x_14_0 + 56.96 x_14_1 + 9.51 x_14_10 + 43.88 x_14_11
 + 75.12 x_14_12 + 61.08 x_14_13 + 12.5 x_14_15 + 44.99 x_14_2 + 97.85 x_14_3
 + 66.17 x_14_4 + 108.62 x_14_5 + 29.18 x_14_6 + 43.28 x_14_7 + 55.84 x_14_8
 + 29.27 x_14_9 + 81.42 x_15_0 + 44.59 x_15_1 + 3.13 x_15_10 + 37.13 x_15_11
 + 63.3 x_15_12 + 53.34 x_15_13 + 12.5 x_15_14 + 45.18 x_15_2 + 88.65 x_15_3
 + 53.76 x_15_4 + 99.17 x_15_5 + 22.88 x_15_6 + 42.59 x_15_7 + 46.63 x_15_8
 + 21.31 x_15_9 + 50.17 x_1_0 + 47.46 x_1_10 + 49.74 x_1_11 + 33.31 x_1_12
 + 53.9 x_1_13 + 56.96 x_1_14 + 44.59 x_1_15 + 72.64 x_1_2 + 72.51 x_1_3
 + 17.06 x_1_4 + 80.25 x_1_5 + 39.92 x_1_6 + 68.93 x_1_7 + 43.41 x_1_8
 + 42.96 x_1_9 + 82.42 x_2_0 + 72.64 x_2_1 + 45.61 x_2_10 + 25.06 x_2_11
 + 69.71 x_2_12 + 36.09 x_2_13 + 44.99 x_2_14 + 45.18 x_2_15 + 71.69 x_2_3
 + 70.92 x_2_4 + 82.51 x_2_5 + 67.88 x_2_6 + 3.76 x_2_7 + 39.74 x_2_8
 + 30.73 x_2_9 + 32.76 x_3_0 + 72.51 x_3_1 + 91.36 x_3_10 + 55.19 x_3_11
 + 40.61 x_3_12 + 37.94 x_3_13 + 97.85 x_3_14 + 88.65 x_3_15 + 71.69 x_3_2
 + 56.56 x_3_4 + 11.03 x_3_5 + 101.35 x_3_6 + 69.39 x_3_7 + 42.09 x_3_8
 + 68.58 x_3_9 + 33.2 x_4_0 + 17.06 x_4_1 + 56.87 x_4_10 + 46.07 x_4_11
 + 16.43 x_4_12 + 44.58 x_4_13 + 66.17 x_4_14 + 53.76 x_4_15 + 70.92 x_4_2
 + 56.56 x_4_3 + 63.68 x_4_5 + 54.71 x_4_6 + 67.16 x_4_7 + 34.89 x_4_8
 + 44.99 x_4_9 + 35.45 x_5_0 + 80.25 x_5_1 + 101.94 x_5_10 + 66.18 x_5_11
 + 47.3 x_5_12 + 48.96 x_5_13 + 108.62 x_5_14 + 99.17 x_5_15 + 82.51 x_5_2
 + 11.03 x_5_3 + 63.68 x_5_4 + 111.04 x_5_6 + 80.29 x_5_7 + 52.78 x_5_8
 + 79.36 x_5_9 + 86.88 x_6_0 + 39.92 x_6_1 + 23.23 x_6_10 + 56.18 x_6_11
 + 68.54 x_6_12 + 70.11 x_6_13 + 29.18 x_6_14 + 22.88 x_6_15 + 67.88 x_6_2
 + 101.35 x_6_3 + 54.71 x_6_4 + 111.04 x_6_5 + 65.13 x_6_7 + 61.37 x_6_8
 + 40.82 x_6_9 + 79.11 x_7_0 + 68.93 x_7_1 + 43.23 x_7_10 + 21.36 x_7_11
 + 66.13 x_7_12 + 33.13 x_7_13 + 43.28 x_7_14 + 42.59 x_7_15 + 3.76 x_7_2
 + 69.39 x_7_3 + 67.16 x_7_4 + 80.29 x_7_5 + 65.13 x_7_6 + 36.26 x_7_8
 + 27.24 x_7_9 + 43.17 x_8_0 + 43.41 x_8_1 + 49.3 x_8_10 + 15.89 x_8_11
 + 30.14 x_8_12 + 10.51 x_8_13 + 55.84 x_8_14 + 46.63 x_8_15 + 39.74 x_8_2
 + 42.09 x_8_3 + 34.89 x_8_4 + 52.78 x_8_5 + 61.37 x_8_6 + 36.26 x_8_7
 + 26.62 x_8_9 + 66.2 x_9_0 + 42.96 x_9_1 + 23.54 x_9_10 + 15.87 x_9_11
 + 49.45 x_9_12 + 32.2 x_9_13 + 29.27 x_9_14 + 21.31 x_9_15 + 30.73 x_9_2
 + 68.58 x_9_3 + 44.99 x_9_4 + 79.36 x_9_5 + 40.82 x_9_6 + 27.24 x_9_7
 + 26.62 x_9_8
Subject To
CapLink_10_1: - load_1 + load_10 + 100 x_10_1 <= 93
CapLink_10_11: load_10 - load_11 + 100 x_10_11 <= 92
CapLink_10_12: load_10 - load_12 + 100 x_10_12 <= 97
CapLink_10_13: load_10 - load_13 + 100 x_10_13 <= 99
CapLink_10_14: load_10 - load_14 + 100 x_10_14 <= 96
CapLink_10_15: load_10 - load_15 + 100 x_10_15 <= 98
CapLink_10_2: load_10 - load_2 + 100 x_10_2 <= 98
CapLink_10_3: load_10 - load_3 + 100 x_10_3 <= 96
CapLink_10_4: load_10 - load_4 + 100 x_10_4 <= 91
CapLink_10_5: load_10 - load_5 + 100 x_10_5 <= 98
CapLink_10_6: load_10 - load_6 + 100 x_10_6 <= 91
CapLink_10_7: load_10 - load_7 + 100 x_10_7 <= 95
CapLink_10_8: load_10 - load_8 + 100 x_10_8 <= 98
CapLink_10_9: load_10 - load_9 + 100 x_10_9 <= 96
CapLink_11_1: - load_1 + load_11 + 100 x_11_1 <= 93
CapLink_11_10: - load_10 + load_11 + 100 x_11_10 <= 93
CapLink_11_12: load_11 - load_12 + 100 x_11_12 <= 97
CapLink_11_13: load_11 - load_13 + 100 x_11_13 <= 99
CapLink_11_14: load_11 - load_14 + 100 x_11_14 <= 96
CapLink_11_15: load_11 - load_15 + 100 x_11_15 <= 98
CapLink_11_2: load_11 - load_2 + 100 x_11_2 <= 98
CapLink_11_3: load_11 - load_3 + 100 x_11_3 <= 96
CapLink_11_4: load_11 - load_4 + 100 x_11_4 <= 91
CapLink_11_5: load_11 - load_5 + 100 x_11_5 <= 98
CapLink_11_6: load_11 - load_6 + 100 x_11_6 <= 91
CapLink_11_7: load_11 - load_7 + 100 x_11_7 <= 95
CapLink_11_8: load_11 - load_8 + 100 x_11_8 <= 98
CapLink_11_9: load_11 - load_9 + 100 x_11_9 <= 96
CapLink_12_1: - load_1 + load_12 + 100 x_12_1 <= 93
CapLink_12_10: - load_10 + load_12 + 100 x_12_10 <= 93
CapLink_12_11: - load_11 + load_12 + 100 x_12_11 <= 92
CapLink_12_13: load_12 - load_13 + 100 x_12_13 <= 99
CapLink_12_14: load_12 - load_14 + 100 x_12_14 <= 96
CapLink_12_15: load_12 - load_15 + 100 x_12_15 <= 98
CapLink_12_2: load_12 - load_2 + 100 x_12_2 <= 98
CapLink_12_3: load_12 - load_3 + 100 x_12_3 <= 96
CapLink_12_4: load_12 - load_4 + 100 x_12_4 <= 91
CapLink_12_5: load_12 - load_5 + 100 x_12_5 <= 98
CapLink_12_6: load_12 - load_6 + 100 x_12_6 <= 91
CapLink_12_7: load_12 - load_7 + 100 x_12_7 <= 95
CapLink_12_8: load_12 - load_8 + 100 x_12_8 <= 98
CapLink_12_9: load_12 - load_9 + 100 x_12_9 <= 96
CapLink_13_1: - load_1 + load_13 + 100 x_13_1 <= 93
CapLink_13_10: - load_10 + load_13 + 100 x_13_10 <= 93
CapLink_13_11: - load_11 + load_13 + 100 x_13_11 <= 92
CapLink_13_12: - load_12 + load_13 + 100 x_13_12 <= 97
CapLink_13_14: load_13 - load_14 + 100 x_13_14 <= 96
CapLink_13_15: load_13 - load_15 + 100 x_13_15 <= 98
CapLink_13_2: load_13 - load_2 + 100 x_13_2 <= 98
CapLink_13_3: load_13 - load_3 + 100 x_13_3 <= 96
CapLink_13_4: load_13 - load_4 + 100 x_13_4 <= 91
CapLink_13_5: load_13 - load_5 + 100 x_13_5 <= 98
CapLink_13_6: load_13 - load_6 + 100 x_13_6 <= 91
CapLink_13_7: load_13 - load_7 + 100 x_13_7 <= 95
CapLink_13_8: load_13 - load_8 + 100 x_13_8 <= 98
CapLink_13_9: load_13 - load_9 + 100 x_13_9 <= 96
CapLink_14_1: - load_1 + load_14 + 100 x_14_1 <= 93
CapLink_14_10: - load_10 + load_14 + 100 x_14_10 <= 93
CapLink_14_11: - load_11 + load_14 + 100 x_14_11 <= 92
CapLink_14_12: - load_12 + load_14 + 100 x_14_12 <= 97
CapLink_14_13: - load_13 + load_14 + 100 x_14_13 <= 99
CapLink_14_15: load_14 - load_15 + 100 x_14_15 <= 98
CapLink_14_2: load_14 - load_2 + 100 x_14_2 <= 98
CapLink_14_3: load_14 - load_3 + 100 x_14_3 <= 96
CapLink_14_4: load_14 - load_4 + 100 x_14_4 <= 91
CapLink_14_5: load_14 - load_5 + 100 x_14_5 <= 98
CapLink_14_6: load_14 - load_6 + 100 x_14_6 <= 91
CapLink_14_7: load_14 - load_7 + 100 x_14_7 <= 95
CapLink_14_8: load_14 - load_8 + 100 x_14_8 <= 98
CapLink_14_9: load_14 - load_9 + 100 x_14_9 <= 96
CapLink_15_1: - load_1 + load_15 + 100 x_15_1 <= 93
CapLink_15_10: - load_10 + load_15 + 100 x_15_10 <= 93
CapLink_15_11: - load_11 + load_15 + 100 x_15_11 <= 92
CapLink_15_12: - load_12 + load_15 + 100 x_15_12 <= 97
CapLink_15_13: - load_13 + load_15 + 100 x_15_13 <= 99
CapLink_15_14: - load_14 + load_15 + 100 x_15_14 <= 96
CapLink_15_2: load_15 - load_2 + 100 x_15_2 <= 98
CapLink_15_3: load_15 - load_3 + 100 x_15_3 <= 96
CapLink_15_4: load_15 - load_4 + 100 x_15_4 <= 91
CapLink_15_5: load_15 - load_5 + 100 x_15_5 <= 98
CapLink_15_6: load_15 - load_6 + 100 x_15_6 <= 91
CapLink_15_7: load_15 - load_7 + 100 x_15_7 <= 95
CapLink_15_8: load_15 - load_8 + 100 x_15_8 <= 98
CapLink_15_9: load_15 - load_9 + 100 x_15_9 <= 96
CapLink_1_10: load_1 - load_10 + 100 x_1_10 <= 93
CapLink_1_11: load_1 - load_11 + 100 x_1_11 <= 92
CapLink_1_12: load_1 - load_12 + 100 x_1_12 <= 97
CapLink_1_13: load_1 - load_13 + 100 x_1_13 <= 99
CapLink_1_14: load_1 - load_14 + 100 x_1_14 <= 96
CapLink_1_15: load_1 - load_15 + 100 x_1_15 <= 98
CapLink_1_2: load_1 - load_2 + 100 x_1_2 <= 98
CapLink_1_3: load_1 - load_3 + 100 x_1_3 <= 96
CapLink_1_4: load_1 - load_4 + 100 x_1_4 <= 91
CapLink_1_5: load_1 - load_5 + 100 x_1_5 <= 98
CapLink_1_6: load_1 - load_6 + 100 x_1_6 <= 91
CapLink_1_7: load_1 - load_7 + 100 x_1_7 <= 95
CapLink_1_8: load_1 - load_8 + 100 x_1_8 <= 98
CapLink_1_9: load_1 - load_9 + 100 x_1_9 <= 96
CapLink_2_1: - load_1 + load_2 + 100 x_2_1 <= 93
CapLink_2_10: - load_10 + load_2 + 100 x_2_10 <= 93
CapLink_2_11: - load_11 + load_2 + 100 x_2_11 <= 92
CapLink_2_12: - load_12 + load_2 + 100 x_2_12 <= 97
CapLink_2_13: - load_13 + load_2 + 100 x_2_13 <= 99
CapLink_2_14: - load_14 + load_2 + 100 x_2_14 <= 96
CapLink_2_15: - load_15 + load_2 + 100 x_2_15 <= 98
CapLink_2_3: load_2 - load_3 + 100 x_2_3 <= 96
CapLink_2_4: load_2 - load_4 + 100 x_2_4 <= 91
CapLink_2_5: load_2 - load_5 + 100 x_2_5 <= 98
CapLink_2_6: load_2 - load_6 + 100 x_2_6 <= 91
CapLink_2_7: load_2 - load_7 + 100 x_2_7 <= 95
CapLink_2_8: load_2 - load_8 + 100 x_2_8 <= 98
CapLink_2_9: load_2 - load_9 + 100 x_2_9 <= 96
CapLink_3_1: - load_1 + load_3 + 100 x_3_1 <= 93
CapLink_3_10: - load_10 + load_3 + 100 x_3_10 <= 93
CapLink_3_11: - load_11 + load_3 + 100 x_3_11 <= 92
CapLink_3_12: - load_12 + load_3 + 100 x_3_12 <= 97
CapLink_3_13: - load_13 + load_3 + 100 x_3_13 <= 99
CapLink_3_14: - load_14 + load_3 + 100 x_3_14 <= 96
CapLink_3_15: - load_15 + load_3 + 100 x_3_15 <= 98
CapLink_3_2: - load_2 + load_3 + 100 x_3_2 <= 98
CapLink_3_4: load_3 - load_4 + 100 x_3_4 <= 91
CapLink_3_5: load_3 - load_5 + 100 x_3_5 <= 98
CapLink_3_6: load_3 - load_6 + 100 x_3_6 <= 91
CapLink_3_7: load_3 - load_7 + 100 x_3_7 <= 95
CapLink_3_8: load_3 - load_8 + 100 x_3_8 <= 98
CapLink_3_9: load_3 - load_9 + 100 x_3_9 <= 96
CapLink_4_1: - load_1 + load_4 + 100 x_4_1 <= 93
CapLink_4_10: - load_10 + load_4 + 100 x_4_10 <= 93
CapLink_4_11: - load_11 + load_4 + 100 x_4_11 <= 92
CapLink_4_12: - load_12 + load_4 + 100 x_4_12 <= 97
CapLink_4_13: - load_13 + load_4 + 100 x_4_13 <= 99
CapLink_4_14: - load_14 + load_4 + 100 x_4_14 <= 96
CapLink_4_15: - load_15 + load_4 + 100 x_4_15 <= 98
CapLink_4_2: - load_2 + load_4 + 100 x_4_2 <= 98
CapLink_4_3: - load_3 + load_4 + 100 x_4_3 <= 96
CapLink_4_5: load_4 - load_5 + 100 x_4_5 <= 98
CapLink_4_6: load_4 - load_6 + 100 x_4_6 <= 91
CapLink_4_7: load_4 - load_7 + 100 x_4_7 <= 95
CapLink_4_8: load_4 - load_8 + 100 x_4_8 <= 98
CapLink_4_9: load_4 - load_9 + 100 x_4_9 <= 96
CapLink_5_1: - load_1 + load_5 + 100 x_5_1 <= 93
CapLink_5_10: - load_10 + load_5 + 100 x_5_10 <= 93
CapLink_5_11: - load_11 + load_5 + 100 x_5_11 <= 92
CapLink_5_12: - load_12 + load_5 + 100 x_5_12 <= 97
CapLink_5_13: - load_13 + load_5 + 100 x_5_13 <= 99
CapLink_5_14: - load_14 + load_5 + 100 x_5_14 <= 96
CapLink_5_15: - load_15 + load_5 + 100 x_5_15 <= 98
CapLink_5_2: - load_2 + load_5 + 100 x_5_2 <= 98
CapLink_5_3: - load_3 + load_5 + 100 x_5_3 <= 96
CapLink_5_4: - load_4 + load_5 + 100 x_5_4 <= 91
CapLink_5_6: load_5 - load_6 + 100 x_5_6 <= 91
CapLink_5_7: load_5 - load_7 + 100 x_5_7 <= 95
CapLink_5_8: load_5 - load_8 + 100 x_5_8 <= 98
CapLink_5_9: load_5 - load_9 + 100 x_5_9 <= 96
CapLink_6_1: - load_1 + load_6 + 100 x_6_1 <= 93
CapLink_6_10: - load_10 + load_6 + 100 x_6_10 <= 93
CapLink_6_11: - load_11 + load_6 + 100 x_6_11 <= 92
CapLink_6_12: - load_12 + load_6 + 100 x_6_12 <= 97
CapLink_6_13: - load_13 + load_6 + 100 x_6_13 <= 99
CapLink_6_14: - load_14 + load_6 + 100 x_6_14 <= 96
CapLink_6_15: - load_15 + load_6 + 100 x_6_15 <= 98
CapLink_6_2: - load_2 + load_6 + 100 x_6_2 <= 98
CapLink_6_3: - load_3 + load_6 + 100 x_6_3 <= 96
CapLink_6_4: - load_4 + load_6 + 100 x_6_4 <= 91
CapLink_6_5: - load_5 + load_6 + 100 x_6_5 <= 98
CapLink_6_7: load_6 - load_7 + 100 x_6_7 <= 95
CapLink_6_8: load_6 - load_8 + 100 x_6_8 <= 98
CapLink_6_9: load_6 - load_9 + 100 x_6_9 <= 96
CapLink_7_1: - load_1 + load_7 + 100 x_7_1 <= 93
CapLink_7_10: - load_10 + load_7 + 100 x_7_10 <= 93
CapLink_7_11: - load_11 + load_7 + 100 x_7_11 <= 92
CapLink_7_12: - load_12 + load_7 + 100 x_7_12 <= 97
CapLink_7_13: - load_13 + load_7 + 100 x_7_13 <= 99
CapLink_7_14: - load_14 + load_7 + 100 x_7_14 <= 96
CapLink_7_15: - load_15 + load_7 + 100 x_7_15 <= 98
CapLink_7_2: - load_2 + load_7 + 100 x_7_2 <= 98
CapLink_7_3: - load_3 + load_7 + 100 x_7_3 <= 96
CapLink_7_4: - load_4 + load_7 + 100 x_7_4 <= 91
CapLink_7_5: - load_5 + load_7 + 100 x_7_5 <= 98
CapLink_7_6: - load_6 + load_7 + 100 x_7_6 <= 91
CapLink_7_8: load_7 - load_8 + 100 x_7_8 <= 98
CapLink_7_9: load_7 - load_9 + 100 x_7_9 <= 96
CapLink_8_1: - load_1 + load_8 + 100 x_8_1 <= 93
CapLink_8_10: - load_10 + load_8 + 100 x_8_10 <= 93
CapLink_8_11: - load_11 + load_8 + 100 x_8_11 <= 92
CapLink_8_12: - load_12 + load_8 + 100 x_8_12 <= 97
CapLink_8_13: - load_13 + load_8 + 100 x_8_13 <= 99
CapLink_8_14: - load_14 + load_8 + 100 x_8_14 <= 96
CapLink_8_15: - load_15 + load_8 + 100 x_8_15 <= 98
CapLink_8_2: - load_2 + load_8 + 100 x_8_2 <= 98
CapLink_8_3: - load_3 + load_8 + 100 x_8_3 <= 96
CapLink_8_4: - load_4 + load_8 + 100 x_8_4 <= 91
CapLink_8_5: - load_5 + load_8 + 100 x_8_5 <= 98
CapLink_8_6: - load_6 + load_8 + 100 x_8_6 <= 91
CapLink_8_7: - load_7 + load_8 + 100 x_8_7 <= 95
CapLink_8_9: load_8 - load_9 + 100 x_8_9 <= 96
CapLink_9_1: - load_1 + load_9 + 100 x_9_1 <= 93
CapLink_9_10: - load_10 + load_9 + 100 x_9_10 <= 93
CapLink_9_11: - load_11 + load_9 + 100 x_9_11 <= 92
CapLink_9_12: - load_12 + load_9 + 100 x_9_12 <= 97
CapLink_9_13: - load_13 + load_9 + 100 x_9_13 <= 99
CapLink_9_14: - load_14 + load_9 + 100 x_9_14 <= 96
CapLink_9_15: - load_15 + load_9 + 100 x_9_15 <= 98
CapLink_9_2: - load_2 + load_9 + 100 x_9_2 <= 98
CapLink_9_3: - load_3 + load_9 + 100 x_9_3 <= 96
CapLink_9_4: - load_4 + load_9 + 100 x_9_4 <= 91
CapLink_9_5: - load_5 + load_9 + 100 x_9_5 <= 98
CapLink_9_6: - load_6 + load_9 + 100 x_9_6 <= 91
CapLink_9_7: - load_7 + load_9 + 100 x_9_7 <= 95
CapLink_9_8: - load_8 + load_9 + 100 x_9_8 <= 98
DepotIn: x_10_0 + x_11_0 + x_12_0 + x_13_0 + x_14_0 + x_15_0 + x_1_0 + x_2_0
 + x_3_0 + x_4_0 + x_5_0 + x_6_0 + x_7_0 + x_8_0 + x_9_0 <= 2
DepotOut: x_0_1 + x_0_10 + x_0_11 + x_0_12 + x_0_13 + x_0_14 + x_0_15 + x_0_2
 + x_0_3 + x_0_4 + x_0_5 + x_0_6 + x_0_7 + x_0_8 + x_0_9 <= 2
InDeg_1: x_0_1 + x_10_1 + x_11_1 + x_12_1 + x_13_1 + x_14_1 + x_15_1 + x_2_1
 + x_3_1 + x_4_1 + x_5_1 + x_6_1 + x_7_1 + x_8_1 + x_9_1 = 1
InDeg_10: x_0_10 + x_11_10 + x_12_10 + x_13_10 + x_14_10 + x_15_10 + x_1_10
 + x_2_10 + x_3_10 + x_4_10 + x_5_10 + x_6_10 + x_7_10 + x_8_10 + x_9_10 = 1
InDeg_11: x_0_11 + x_10_11 + x_12_11 + x_13_11 + x_14_11 + x_15_11 + x_1_11
 + x_2_11 + x_3_11 + x_4_11 + x_5_11 + x_6_11 + x_7_11 + x_8_11 + x_9_11 = 1
InDeg_12: x_0_12 + x_10_12 + x_11_12 + x_13_12 + x_14_12 + x_15_12 + x_1_12
 + x_2_12 + x_3_12 + x_4_12 + x_5_12 + x_6_12 + x_7_12 + x_8_12 + x_9_12 = 1
InDeg_13: x_0_13 + x_10_13 + x_11_13 + x_12_13 + x_14_13 + x_15_13 + x_1_13
 + x_2_13 + x_3_13 + x_4_13 + x_5_13 + x_6_13 + x_7_13 + x_8_13 + x_9_13 = 1
InDeg_14: x_0_14 + x_10_14 + x_11_14 + x_12_14 + x_13_14 + x_15_14 + x_1_14
 + x_2_14 + x_3_14 + x_4_14 + x_5_14 + x_6_14 + x_7_14 + x_8_14 + x_9_14 = 1
InDeg_15: x_0_15 + x_10_15 + x_11_15 + x_12_15 + x_13_15 + x_14_15 + x_1_15
 + x_2_15 + x_3_15 + x_4_15 + x_5_15 + x_6_15 + x_7_15 + x_8_15 + x_9_15 = 1
InDeg_2: x_0_2 + x_10_2 + x_11_2 + x_12_2 + x_13_2 + x_14_2 + x_15_2 + x_1_2
 + x_3_2 + x_4_2 + x_5_2 + x_6_2 + x_7_2 + x_8_2 + x_9_2 = 1
InDeg_3: x_0_3 + x_10_3 + x_11_3 + x_12_3 + x_13_3 + x_14_3 + x_15_3 + x_1_3
 + x_2_3 + x_4_3 + x_5_3 + x_6_3 + x_7_3 + x_8_3 + x_9_3 = 1
InDeg_4: x_0_4 + x_10_4 + x_11_4 + x_12_4 + x_13_4 + x_14_4 + x_15_4 + x_1_4
 + x_2_4 + x_3_4 + x_5_4 + x_6_4 + x_7_4 + x_8_4 + x_9_4 = 1
InDeg_5: x_0_5 + x_10_5 + x_11_5 + x_12_5 + x_13_5 + x_14_5 + x_15_5 + x_1_5
 + x_2_5 + x_3_5 + x_4_5 + x_6_5 + x_7_5 + x_8_5 + x_9_5 = 1
InDeg_6: x_0_6 + x_10_6 + x_11_6 + x_12_6 + x_13_6 + x_14_6 + x_15_6 + x_1_6
 + x_2_6 + x_3_6 + x_4_6 + x_5_6 + x_7_6 + x_8_6 + x_9_6 = 1
InDeg_7: x_0_7 + x_10_7 + x_11_7 + x_12_7 + x_13_7 + x_14_7 + x_15_7 + x_1_7
 + x_2_7 + x_3_7 + x_4_7 + x_5_7 + x_6_7 + x_8_7 + x_9_7 = 1
InDeg_8: x_0_8 + x_10_8 + x_11_8 + x_12_8 + x_13_8 + x_14_8 + x_15_8 + x_1_8
 + x_2_8 + x_3_8 + x_4_8 + x_5_8 + x_6_8 + x_7_8 + x_9_8 = 1
InDeg_9: x_0_9 + x_10_9 + x_11_9 + x_12_9 + x_13_9 + x_14_9 + x_15_9 + x_1_9
 + x_2_9 + x_3_9 + x_4_9 + x_5_9 + x_6_9 + x_7_9 + x_8_9 = 1
InitLoad_1: load_1 - 7 x_0_1 >= 0
InitLoad_10: load_10 - 7 x_0_10 >= 0
InitLoad_11: load_11 - 8 x_0_11 >= 0
InitLoad_12: load_12 - 3 x_0_12 >= 0
InitLoad_13: load_13 - x_0_13 >= 0
InitLoad_14: load_14 - 4 x_0_14 >= 0
InitLoad_15: load_15 - 2 x_0_15 >= 0
InitLoad_2: load_2 - 2 x_0_2 >= 0
InitLoad_3: load_3 - 4 x_0_3 >= 0
InitLoad_4: load_4 - 9 x_0_4 >= 0
InitLoad_5: load_5 - 2 x_0_5 >= 0
InitLoad_6: load_6 - 9 x_0_6 >= 0
InitLoad_7: load_7 - 5 x_0_7 >= 0
InitLoad_8: load_8 - 2 x_0_8 >= 0
InitLoad_9: load_9 - 4 x_0_9 >= 0
Load_depot: load_0 = 0
MTZ_10_1: - u_1 + u_10 + 15 x_10_1 <= 14
MTZ_10_11: u_10 - u_11 + 15 x_10_11 <= 14
MTZ_10_12: u_10 - u_12 + 15 x_10_12 <= 14
MTZ_10_13: u_10 - u_13 + 15 x_10_13 <= 14
MTZ_10_14: u_10 - u_14 + 15 x_10_14 <= 14
MTZ_10_15: u_10 - u_15 + 15 x_10_15 <= 14
MTZ_10_2: u_10 - u_2 + 15 x_10_2 <= 14
MTZ_10_3: u_10 - u_3 + 15 x_10_3 <= 14
MTZ_10_4: u_10 - u_4 + 15 x_10_4 <= 14
MTZ_10_5: u_10 - u_5 + 15 x_10_5 <= 14
MTZ_10_6: u_10 - u_6 + 15 x_10_6 <= 14
MTZ_10_7: u_10 - u_7 + 15 x_10_7 <= 14
MTZ_10_8: u_10 - u_8 + 15 x_10_8 <= 14
MTZ_10_9: u_10 - u_9 + 15 x_10_9 <= 14
MTZ_11_1: - u_1 + u_11 + 15 x_11_1 <= 14
MTZ_11_10: - u_10 + u_11 + 15 x_11_10 <= 14
MTZ_11_12: u_11 - u_12 + 15 x_11_12 <= 14
MTZ_11_13: u_11 - u_13 + 15 x_11_13 <= 14
MTZ_11_14: u_11 - u_14 + 15 x_11_14 <= 14
MTZ_11_15: u_11 - u_15 + 15 x_11_15 <= 14
MTZ_11_2: u_11 - u_2 + 15 x_11_2 <= 14
MTZ_11_3: u_11 - u_3 + 15 x_11_3 <= 14
MTZ_11_4: u_11 - u_4 + 15 x_11_4 <= 14
MTZ_11_5: u_11 - u_5 + 15 x_11_5 <= 14
MTZ_11_6: u_11 - u_6 + 15 x_11_6 <= 14
MTZ_11_7: u_11 - u_7 + 15 x_11_7 <= 14
MTZ_11_8: u_11 - u_8 + 15 x_11_8 <= 14
MTZ_11_9: u_11 - u_9 + 15 x_11_9 <= 14
MTZ_12_1: - u_1 + u_12 + 15 x_12_1 <= 14
MTZ_12_10: - u_10 + u_12 + 15 x_12_10 <= 14
MTZ_12_11: - u_11 + u_12 + 15 x_12_11 <= 14
MTZ_12_13: u_12 - u_13 + 15 x_12_13 <= 14
MTZ_12_14: u_12 - u_14 + 15 x_12_14 <= 14
MTZ_12_15: u_12 - u_15 + 15 x_12_15 <= 14
MTZ_12_2: u_12 - u_2 + 15 x_12_2 <= 14
MTZ_12_3: u_12 - u_3 + 15 x_12_3 <= 14
MTZ_12_4: u_12 - u_4 + 15 x_12_4 <= 14
MTZ_12_5: u_12 - u_5 + 15 x_12_5 <= 14
MTZ_12_6: u_12 - u_6 + 15 x_12_6 <= 14
MTZ_12_7: u_12 - u_7 + 15 x_12_7 <= 14
MTZ_12_8: u_12 - u_8 + 15 x_12_8 <= 14
MTZ_12_9: u_12 - u_9 + 15 x_12_9 <= 14
MTZ_13_1: - u_1 + u_13 + 15 x_13_1 <= 14
MTZ_13_10: - u_10 + u_13 + 15 x_13_10 <= 14
MTZ_13_11: - u_11 + u_13 + 15 x_13_11 <= 14
MTZ_13_12: - u_12 + u_13 + 15 x_13_12 <= 14
MTZ_13_14: u_13 - u_14 + 15 x_13_14 <= 14
MTZ_13_15: u_13 - u_15 + 15 x_13_15 <= 14
MTZ_13_2: u_13 - u_2 + 15 x_13_2 <= 14
MTZ_13_3: u_13 - u_3 + 15 x_13_3 <= 14
MTZ_13_4: u_13 - u_4 + 15 x_13_4 <= 14
MTZ_13_5: u_13 - u_5 + 15 x_13_5 <= 14
MTZ_13_6: u_13 - u_6 + 15 x_13_6 <= 14
MTZ_13_7: u_13 - u_7 + 15 x_13_7 <= 14
MTZ_13_8: u_13 - u_8 + 15 x_13_8 <= 14
MTZ_13_9: u_13 - u_9 + 15 x_13_9 <= 14
MTZ_14_1: - u_1 + u_14 + 15 x_14_1 <= 14
MTZ_14_10: - u_10 + u_14 + 15 x_14_10 <= 14
MTZ_14_11: - u_11 + u_14 + 15 x_14_11 <= 14
MTZ_14_12: - u_12 + u_14 + 15 x_14_12 <= 14
MTZ_14_13: - u_13 + u_14 + 15 x_14_13 <= 14
MTZ_14_15: u_14 - u_15 + 15 x_14_15 <= 14
MTZ_14_2: u_14 - u_2 + 15 x_14_2 <= 14
MTZ_14_3: u_14 - u_3 + 15 x_14_3 <= 14
MTZ_14_4: u_14 - u_4 + 15 x_14_4 <= 14
MTZ_14_5: u_14 - u_5 + 15 x_14_5 <= 14
MTZ_14_6: u_14 - u_6 + 15 x_14_6 <= 14
MTZ_14_7: u_14 - u_7 + 15 x_14_7 <= 14
MTZ_14_8: u_14 - u_8 + 15 x_14_8 <= 14
MTZ_14_9: u_14 - u_9 + 15 x_14_9 <= 14
MTZ_15_1: - u_1 + u_15 + 15 x_15_1 <= 14
MTZ_15_10: - u_10 + u_15 + 15 x_15_10 <= 14
MTZ_15_11: - u_11 + u_15 + 15 x_15_11 <= 14
MTZ_15_12: - u_12 + u_15 + 15 x_15_12 <= 14
MTZ_15_13: - u_13 + u_15 + 15 x_15_13 <= 14
MTZ_15_14: - u_14 + u_15 + 15 x_15_14 <= 14
MTZ_15_2: u_15 - u_2 + 15 x_15_2 <= 14
MTZ_15_3: u_15 - u_3 + 15 x_15_3 <= 14
MTZ_15_4: u_15 - u_4 + 15 x_15_4 <= 14
MTZ_15_5: u_15 - u_5 + 15 x_15_5 <= 14
MTZ_15_6: u_15 - u_6 + 15 x_15_6 <= 14
MTZ_15_7: u_15 - u_7 + 15 x_15_7 <= 14
MTZ_15_8: u_15 - u_8 + 15 x_15_8 <= 14
MTZ_15_9: u_15 - u_9 + 15 x_15_9 <= 14
MTZ_1_10: u_1 - u_10 + 15 x_1_10 <= 14
MTZ_1_11: u_1 - u_11 + 15 x_1_11 <= 14
MTZ_1_12: u_1 - u_12 + 15 x_1_12 <= 14
MTZ_1_13: u_1 - u_13 + 15 x_1_13 <= 14
MTZ_1_14: u_1 - u_14 + 15 x_1_14 <= 14
MTZ_1_15: u_1 - u_15 + 15 x_1_15 <= 14
MTZ_1_2: u_1 - u_2 + 15 x_1_2 <= 14
MTZ_1_3: u_1 - u_3 + 15 x_1_3 <= 14
MTZ_1_4: u_1 - u_4 + 15 x_1_4 <= 14
MTZ_1_5: u_1 - u_5 + 15 x_1_5 <= 14
MTZ_1_6: u_1 - u_6 + 15 x_1_6 <= 14
MTZ_1_7: u_1 - u_7 + 15 x_1_7 <= 14
MTZ_1_8: u_1 - u_8 + 15 x_1_8 <= 14
MTZ_1_9: u_1 - u_9 + 15 x_1_9 <= 14
MTZ_2_1: - u_1 + u_2 + 15 x_2_1 <= 14
MTZ_2_10: - u_10 + u_2 + 15 x_2_10 <= 14
MTZ_2_11: - u_11 + u_2 + 15 x_2_11 <= 14
MTZ_2_12: - u_12 + u_2 + 15 x_2_12 <= 14
MTZ_2_13: - u_13 + u_2 + 15 x_2_13 <= 14
MTZ_2_14: - u_14 + u_2 + 15 x_2_14 <= 14
MTZ_2_15: - u_15 + u_2 + 15 x_2_15 <= 14
MTZ_2_3: u_2 - u_3 + 15 x_2_3 <= 14
MTZ_2_4: u_2 - u_4 + 15 x_2_4 <= 14
MTZ_2_5: u_2 - u_5 + 15 x_2_5 <= 14
MTZ_2_6: u_2 - u_6 + 15 x_2_6 <= 14
MTZ_2_7: u_2 - u_7 + 15 x_2_7 <= 14
MTZ_2_8: u_2 - u_8 + 15 x_2_8 <= 14
MTZ_2_9: u_2 - u_9 + 15 x_2_9 <= 14
MTZ_3_1: - u_1 + u_3 + 15 x_3_1 <= 14
MTZ_3_10: - u_10 + u_3 + 15 x_3_10 <= 14
MTZ_3_11: - u_11 + u_3 + 15 x_3_11 <= 14
MTZ_3_12: - u_12 + u_3 + 15 x_3_12 <= 14
MTZ_3_13: - u_13 + u_3 + 15 x_3_13 <= 14
MTZ_3_14: - u_14 + u_3 + 15 x_3_14 <= 14
MTZ_3_15: - u_15 + u_3 + 15 x_3_15 <= 14
MTZ_3_2: - u_2 + u_3 + 15 x_3_2 <= 14
MTZ_3_4: u_3 - u_4 + 15 x_3_4 <= 14
MTZ_3_5: u_3 - u_5 + 15 x_3_5 <= 14
MTZ_3_6: u_3 - u_6 + 15 x_3_6 <= 14
MTZ_3_7: u_3 - u_7 + 15 x_3_7 <= 14
MTZ_3_8: u_3 - u_8 + 15 x_3_8 <= 14
MTZ_3_9: u_3 - u_9 + 15 x_3_9 <= 14
MTZ_4_1: - u_1 + u_4 + 15 x_4_1 <= 14
MTZ_4_10: - u_10 + u_4 + 15 x_4_10 <= 14
MTZ_4_11: - u_11 + u_4 + 15 x_4_11 <= 14
MTZ_4_12: - u_12 + u_4 + 15 x_4_12 <= 14
MTZ_4_13: - u_13 + u_4 + 15 x_4_13 <= 14
MTZ_4_14: - u_14 + u_4 + 15 x_4_14 <= 14
MTZ_4_15: - u_15 + u_4 + 15 x_4_15 <= 14
MTZ_4_2: - u_2 + u_4 + 15 x_4_2 <= 14
MTZ_4_3: - u_3 + u_4 + 15 x_4_3 <= 14
MTZ_4_5: u_4 - u_5 + 15 x_4_5 <= 14
MTZ_4_6: u_4 - u_6 + 15 x_4_6 <= 14
MTZ_4_7: u_4 - u_7 + 15 x_4_7 <= 14
MTZ_4_8: u_4 - u_8 + 15 x_4_8 <= 14
MTZ_4_9: u_4 - u_9 + 15 x_4_9 <= 14
MTZ_5_1: - u_1 + u_5 + 15 x_5_1 <= 14
MTZ_5_10: - u_10 + u_5 + 15 x_5_10 <= 14
MTZ_5_11: - u_11 + u_5 + 15 x_5_11 <= 14
MTZ_5_12: - u_12 + u_5 + 15 x_5_12 <= 14
MTZ_5_13: - u_13 + u_5 + 15 x_5_13 <= 14
MTZ_5_14: - u_14 + u_5 + 15 x_5_14 <= 14
MTZ_5_15: - u_15 + u_5 + 15 x_5_15 <= 14
MTZ_5_2: - u_2 + u_5 + 15 x_5_2 <= 14
MTZ_5_3: - u_3 + u_5 + 15 x_5_3 <= 14
MTZ_5_4: - u_4 + u_5 + 15 x_5_4 <= 14
MTZ_5_6: u_5 - u_6 + 15 x_5_6 <= 14
MTZ_5_7: u_5 - u_7 + 15 x_5_7 <= 14
MTZ_5_8: u_5 - u_8 + 15 x_5_8 <= 14
MTZ_5_9: u_5 - u_9 + 15 x_5_9 <= 14
MTZ_6_1: - u_1 + u_6 + 15 x_6_1 <= 14
MTZ_6_10: - u_10 + u_6 + 15 x_6_10 <= 14
MTZ_6_11: - u_11 + u_6 + 15 x_6_11 <= 14
MTZ_6_12: - u_12 + u_6 + 15 x_6_12 <= 14
MTZ_6_13: - u_13 + u_6 + 15 x_6_13 <= 14
MTZ_6_14: - u_14 + u_6 + 15 x_6_14 <= 14
MTZ_6_15: - u_15 + u_6 + 15 x_6_15 <= 14
MTZ_6_2: - u_2 + u_6 + 15 x_6_2 <= 14
MTZ_6_3: - u_3 + u_6 + 15 x_6_3 <= 14
MTZ_6_4: - u_4 + u_6 + 15 x_6_4 <= 14
MTZ_6_5: - u_5 + u_6 + 15 x_6_5 <= 14
MTZ_6_7: u_6 - u_7 + 15 x_6_7 <= 14
MTZ_6_8: u_6 - u_8 + 15 x_6_8 <= 14
MTZ_6_9: u_6 - u_9 + 15 x_6_9 <= 14
MTZ_7_1: - u_1 + u_7 + 15 x_7_1 <= 14
MTZ_7_10: - u_10 + u_7 + 15 x_7_10 <= 14
MTZ_7_11: - u_11 + u_7 + 15 x_7_11 <= 14
MTZ_7_12: - u_12 + u_7 + 15 x_7_12 <= 14
MTZ_7_13: - u_13 + u_7 + 15 x_7_13 <= 14
MTZ_7_14: - u_14 + u_7 + 15 x_7_14 <= 14
MTZ_7_15: - u_15 + u_7 + 15 x_7_15 <= 14
MTZ_7_2: - u_2 + u_7 + 15 x_7_2 <= 14
MTZ_7_3: - u_3 + u_7 + 15 x_7_3 <= 14
MTZ_7_4: - u_4 + u_7 + 15 x_7_4 <= 14
MTZ_7_5: - u_5 + u_7 + 15 x_7_5 <= 14
MTZ_7_6: - u_6 + u_7 + 15 x_7_6 <= 14
MTZ_7_8: u_7 - u_8 + 15 x_7_8 <= 14
MTZ_7_9: u_7 - u_9 + 15 x_7_9 <= 14
MTZ_8_1: - u_1 + u_8 + 15 x_8_1 <= 14
MTZ_8_10: - u_10 + u_8 + 15 x_8_10 <= 14
MTZ_8_11: - u_11 + u_8 + 15 x_8_11 <= 14
MTZ_8_12: - u_12 + u_8 + 15 x_8_12 <= 14
MTZ_8_13: - u_13 + u_8 + 15 x_8_13 <= 14
MTZ_8_14: - u_14 + u_8 + 15 x_8_14 <= 14
MTZ_8_15: - u_15 + u_8 + 15 x_8_15 <= 14
MTZ_8_2: - u_2 + u_8 + 15 x_8_2 <= 14
MTZ_8_3: - u_3 + u_8 + 15 x_8_3 <= 14
MTZ_8_4: - u_4 + u_8 + 15 x_8_4 <= 14
MTZ_8_5: - u_5 + u_8 + 15 x_8_5 <= 14
MTZ_8_6: - u_6 + u_8 + 15 x_8_6 <= 14
MTZ_8_7: - u_7 + u_8 + 15 x_8_7 <= 14
MTZ_8_9: u_8 - u_9 + 15 x_8_9 <= 14
MTZ_9_1: - u_1 + u_9 + 15 x_9_1 <= 14
MTZ_9_10: - u_10 + u_9 + 15 x_9_10 <= 14
MTZ_9_11: - u_11 + u_9 + 15 x_9_11 <= 14
MTZ_9_12: - u_12 + u_9 + 15 x_9_12 <= 14
MTZ_9_13: - u_13 + u_9 + 15 x_9_13 <= 14
MTZ_9_14: - u_14 + u_9 + 15 x_9_14 <= 14
MTZ_9_15: - u_15 + u_9 + 15 x_9_15 <= 14
MTZ_9_2: - u_2 + u_9 + 15 x_9_2 <= 14
MTZ_9_3: - u_3 + u_9 + 15 x_9_3 <= 14
MTZ_9_4: - u_4 + u_9 + 15 x_9_4 <= 14
MTZ_9_5: - u_5 + u_9 + 15 x_9_5 <= 14
MTZ_9_6: - u_6 + u_9 + 15 x_9_6 <= 14
MTZ_9_7: - u_7 + u_9 + 15 x_9_7 <= 14
MTZ_9_8: - u_8 + u_9 + 15 x_9_8 <= 14
MTZ_depot: u_0 = 0
OutDeg_1: x_1_0 + x_1_10 + x_1_11 + x_1_12 + x_1_13 + x_1_14 + x_1_15 + x_1_2
 + x_1_3 + x_1_4 + x_1_5 + x_1_6 + x_1_7 + x_1_8 + x_1_9 = 1
OutDeg_10: x_10_0 + x_10_1 + x_10_11 + x_10_12 + x_10_13 + x_10_14 + x_10_15
 + x_10_2 + x_10_3 + x_10_4 + x_10_5 + x_10_6 + x_10_7 + x_10_8 + x_10_9 = 1
OutDeg_11: x_11_0 + x_11_1 + x_11_10 + x_11_12 + x_11_13 + x_11_14 + x_11_15
 + x_11_2 + x_11_3 + x_11_4 + x_11_5 + x_11_6 + x_11_7 + x_11_8 + x_11_9 = 1
OutDeg_12: x_12_0 + x_12_1 + x_12_10 + x_12_11 + x_12_13 + x_12_14 + x_12_15
 + x_12_2 + x_12_3 + x_12_4 + x_12_5 + x_12_6 + x_12_7 + x_12_8 + x_12_9 = 1
OutDeg_13: x_13_0 + x_13_1 + x_13_10 + x_13_11 + x_13_12 + x_13_14 + x_13_15
 + x_13_2 + x_13_3 + x_13_4 + x_13_5 + x_13_6 + x_13_7 + x_13_8 + x_13_9 = 1
OutDeg_14: x_14_0 + x_14_1 + x_14_10 + x_14_11 + x_14_12 + x_14_13 + x_14_15
 + x_14_2 + x_14_3 + x_14_4 + x_14_5 + x_14_6 + x_14_7 + x_14_8 + x_14_9 = 1
OutDeg_15: x_15_0 + x_15_1 + x_15_10 + x_15_11 + x_15_12 + x_15_13 + x_15_14
 + x_15_2 + x_15_3 + x_15_4 + x_15_5 + x_15_6 + x_15_7 + x_15_8 + x_15_9 = 1
OutDeg_2: x_2_0 + x_2_1 + x_2_10 + x_2_11 + x_2_12 + x_2_13 + x_2_14 + x_2_15
 + x_2_3 + x_2_4 + x_2_5 + x_2_6 + x_2_7 + x_2_8 + x_2_9 = 1
OutDeg_3: x_3_0 + x_3_1 + x_3_10 + x_3_11 + x_3_12 + x_3_13 + x_3_14 + x_3_15
 + x_3_2 + x_3_4 + x_3_5 + x_3_6 + x_3_7 + x_3_8 + x_3_9 = 1
OutDeg_4: x_4_0 + x_4_1 + x_4_10 + x_4_11 + x_4_12 + x_4_13 + x_4_14 + x_4_15
 + x_4_2 + x_4_3 + x_4_5 + x_4_6 + x_4_7 + x_4_8 + x_4_9 = 1
OutDeg_5: x_5_0 + x_5_1 + x_5_10 + x_5_11 + x_5_12 + x_5_13 + x_5_14 + x_5_15
 + x_5_2 + x_5_3 + x_5_4 + x_5_6 + x_5_7 + x_5_8 + x_5_9 = 1
OutDeg_6: x_6_0 + x_6_1 + x_6_10 + x_6_11 + x_6_12 + x_6_13 + x_6_14 + x_6_15
 + x_6_2 + x_6_3 + x_6_4 + x_6_5 + x_6_7 + x_6_8 + x_6_9 = 1
OutDeg_7: x_7_0 + x_7_1 + x_7_10 + x_7_11 + x_7_12 + x_7_13 + x_7_14 + x_7_15
 + x_7_2 + x_7_3 + x_7_4 + x_7_5 + x_7_6 + x_7_8 + x_7_9 = 1
OutDeg_8: x_8_0 + x_8_1 + x_8_10 + x_8_11 + x_8_12 + x_8_13 + x_8_14 + x_8_15
 + x_8_2 + x_8_3 + x_8_4 + x_8_5 + x_8_6 + x_8_7 + x_8_9 = 1
OutDeg_9: x_9_0 + x_9_1 + x_9_10 + x_9_11 + x_9_12 + x_9_13 + x_9_14 + x_9_15
 + x_9_2 + x_9_3 + x_9_4 + x_9_5 + x_9_6 + x_9_7 + x_9_8 = 1
_dummy: __dummy = 0
TotalVehicleCapacity: __dummy <= 131
Bounds
 __dummy = 0
 load_0 <= 100
 load_1 <= 100
 load_10 <= 100
 load_11 <= 100
 load_12 <= 100
 load_13 <= 100
 load_14 <= 100
 load_15 <= 100
 load_2 <= 100
 load_3 <= 100
 load_4 <= 100
 load_5 <= 100
 load_6 <= 100
 load_7 <= 100
 load_8 <= 100
 load_9 <= 100
 u_0 <= 15
 u_1 <= 15
 u_10 <= 15
 u_11 <= 15
 u_12 <= 15
 u_13 <= 15
 u_14 <= 15
 u_15 <= 15
 u_2 <= 15
 u_3 <= 15
 u_4 <= 15
 u_5 <= 15
 u_6 <= 15
 u_7 <= 15
 u_8 <= 15
 u_9 <= 15
Binaries
x_0_1
x_0_10
x_0_11
x_0_12
x_0_13
x_0_14
x_0_15
x_0_2
x_0_3
x_0_4
x_0_5
x_0_6
x_0_7
x_0_8
x_0_9
x_10_0
x_10_1
x_10_11
x_10_12
x_10_13
x_10_14
x_10_15
x_10_2
x_10_3
x_10_4
x_10_5
x_10_6
x_10_7
x_10_8
x_10_9
x_11_0
x_11_1
x_11_10
x_11_12
x_11_13
x_11_14
x_11_15
x_11_2
x_11_3
x_11_4
x_11_5
x_11_6
x_11_7
x_11_8
x_11_9
x_12_0
x_12_1
x_12_10
x_12_11
x_12_13
x_12_14
x_12_15
x_12_2
x_12_3
x_12_4
x_12_5
x_12_6
x_12_7
x_12_8
x_12_9
x_13_0
x_13_1
x_13_10
x_13_11
x_13_12
x_13_14
x_13_15
x_13_2
x_13_3
x_13_4
x_13_5
x_13_6
x_13_7
x_13_8
x_13_9
x_14_0
x_14_1
x_14_10
x_14_11
x_14_12
x_14_13
x_14_15
x_14_2
x_14_3
x_14_4
x_14_5
x_14_6
x_14_7
x_14_8
x_14_9
x_15_0
x_15_1
x_15_10
x_15_11
x_15_12
x_15_13
x_15_14
x_15_2
x_15_3
x_15_4
x_15_5
x_15_6
x_15_7
x_15_8
x_15_9
x_1_0
x_1_10
x_1_11
x_1_12
x_1_13
x_1_14
x_1_15
x_1_2
x_1_3
x_1_4
x_1_5
x_1_6
x_1_7
x_1_8
x_1_9
x_2_0
x_2_1
x_2_10
x_2_11
x_2_12
x_2_13
x_2_14
x_2_15
x_2_3
x_2_4
x_2_5
x_2_6
x_2_7
x_2_8
x_2_9
x_3_0
x_3_1
x_3_10
x_3_11
x_3_12
x_3_13
x_3_14
x_3_15
x_3_2
x_3_4
x_3_5
x_3_6
x_3_7
x_3_8
x_3_9
x_4_0
x_4_1
x_4_10
x_4_11
x_4_12
x_4_13
x_4_14
x_4_15
x_4_2
x_4_3
x_4_5
x_4_6
x_4_7
x_4_8
x_4_9
x_5_0
x_5_1
x_5_10
x_5_11
x_5_12
x_5_13
x_5_14
x_5_15
x_5_2
x_5_3
x_5_4
x_5_6
x_5_7
x_5_8
x_5_9
x_6_0
x_6_1
x_6_10
x_6_11
x_6_12
x_6_13
x_6_14
x_6_15
x_6_2
x_6_3
x_6_4
x_6_5
x_6_7
x_6_8
x_6_9
x_7_0
x_7_1
x_7_10
x_7_11
x_7_12
x_7_13
x_7_14
x_7_15
x_7_2
x_7_3
x_7_4
x_7_5
x_7_6
x_7_8
x_7_9
x_8_0
x_8_1
x_8_10
x_8_11
x_8_12
x_8_13
x_8_14
x_8_15
x_8_2
x_8_3
x_8_4
x_8_5
x_8_6
x_8_7
x_8_9
x_9_0
x_9_1
x_9_10
x_9_11
x_9_12
x_9_13
x_9_14
x_9_15
x_9_2
x_9_3
x_9_4
x_9_5
x_9_6
x_9_7
x_9_8
End
